Route 1: 0 13 21 15 68 34 66 58 8 89 46 6 0
Route 2: 0 30 69 41 62 36 19 26 42 83 0
Route 3: 0 3 56 81 52 59 80 38 91 77 47 48 0
Route 4: 0 54 53 14 17 44 2 20 61 4 49 100 0
Route 5: 0 71 63 1 24 85 88 98 96 90 29 0
Route 6: 0 28 94 33 73 32 76 11 18 92 10 25 57 0
Route 7: 0 12 55 51 72 40 79 0
Route 8: 0 37 31 70 74 95 35 9 67 23 0
Route 9: 0 84 86 5 65 27 93 87 60 16 45 43 0
Route 10: 0 22 99 39 64 78 82 50 97 75 7 0
